n=25;
m=50;
ciudades=[|0,1
|2, 4
|3, 8
|4, 1
|6, 3
|6, 4
|6, 5
|8, 7
|9, 3
|9, 10
|12, 22
|9, 11
|2, 2
|19, 15
|18, 13
|13, 2
|14, 9
|12, 4
|2, 18
|1, 12
|2, 12
|7, 18
|1, 5
|5, 16
|4, 11
|5, 12
|2, 15
|13, 15
|5, 9
|7, 16
|4, 12
|8, 9
|13, 19
|8, 11
|12, 13
|1, 7
|6, 15
|12, 16
|11, 15
|8, 16
|13, 18
|9, 20
|11, 19
|4, 15
|9, 12
|16, 18
|3, 16
|9, 18
|6, 20
|5, 17
|];
